p cnf 60 108
1 7 13 19 25 31 0
2 8 14 20 26 32 0
3 9 15 21 27 33 0
4 10 16 22 28 34 0
5 11 17 23 29 35 0
6 12 18 24 30 36 0
-1 37 0
-2 37 0
-1 -2 0
1 2 -37 0
-37 38 0
-3 38 0
-37 -3 0
37 3 -38 0
-38 39 0
-4 39 0
-38 -4 0
38 4 -39 0
-39 40 0
-5 40 0
-39 -5 0
39 5 -40 0
-40 -6 0
-7 41 0
-8 41 0
-7 -8 0
7 8 -41 0
-41 42 0
-9 42 0
-41 -9 0
41 9 -42 0
-42 43 0
-10 43 0
-42 -10 0
42 10 -43 0
-43 44 0
-11 44 0
-43 -11 0
43 11 -44 0
-44 -12 0
-13 45 0
-14 45 0
-13 -14 0
13 14 -45 0
-45 46 0
-15 46 0
-45 -15 0
45 15 -46 0
-46 47 0
-16 47 0
-46 -16 0
46 16 -47 0
-47 48 0
-17 48 0
-47 -17 0
47 17 -48 0
-48 -18 0
-19 49 0
-20 49 0
-19 -20 0
19 20 -49 0
-49 50 0
-21 50 0
-49 -21 0
49 21 -50 0
-50 51 0
-22 51 0
-50 -22 0
50 22 -51 0
-51 52 0
-23 52 0
-51 -23 0
51 23 -52 0
-52 -24 0
-25 53 0
-26 53 0
-25 -26 0
25 26 -53 0
-53 54 0
-27 54 0
-53 -27 0
53 27 -54 0
-54 55 0
-28 55 0
-54 -28 0
54 28 -55 0
-55 56 0
-29 56 0
-55 -29 0
55 29 -56 0
-56 -30 0
-31 57 0
-32 57 0
-31 -32 0
31 32 -57 0
-57 58 0
-33 58 0
-57 -33 0
57 33 -58 0
-58 59 0
-34 59 0
-58 -34 0
58 34 -59 0
-59 60 0
-35 60 0
-59 -35 0
59 35 -60 0
-60 -36 0
